s = 11+1;
n = 3;
swap = 1;
perm_count = 6;
init_perm = 
    [| 1, 2, 3,
     | 1, 3, 2,
     | 2, 1, 3,
     | 2, 3, 1,
     | 3, 1, 2,
     | 3, 2, 1 |];
% takes 1.5s

% with same across perm, ascend, count 0123: 1min 42s
% with ascend, count 0123: 0.6s
% with ascend, count 123: 1min 17s
% with ascend, count 012: 2min 2s